34560, 66240, 127440, 244440, 469800, 21600, 41400, 79560, 153000, 293400, 55400, 98280, 171360, 294840, 502920, 47520, 84960, 149400, 237960, 432360, 23760, 63360, 113400, 198720, 40320, 78480, 148320, 288000, 552240, 23760, 94320, 100800, 158400, 237600, 288000, 64800, 133200, 276480, 14400, 36360, 